c "random instance"
p edges 150 2205
e 1 6
e 1 7
e 1 8
e 1 17
e 1 19
e 1 22
e 1 25
e 1 27
e 1 37
e 1 44
e 1 48
e 1 51
e 1 53
e 1 57
e 1 67
e 1 76
e 1 83
e 1 94
e 1 95
e 1 98
e 1 108
e 1 115
e 1 116
e 1 125
e 1 131
e 1 138
e 1 141
e 1 143
e 1 147
e 2 5
e 2 7
e 2 8
e 2 16
e 2 21
e 2 24
e 2 29
e 2 36
e 2 46
e 2 47
e 2 52
e 2 60
e 2 69
e 2 72
e 2 75
e 2 82
e 2 88
e 2 95
e 2 110
e 2 114
e 2 119
e 2 124
e 2 125
e 2 132
e 2 134
e 2 138
e 2 143
e 2 150
e 3 5
e 3 14
e 3 17
e 3 24
e 3 37
e 3 43
e 3 50
e 3 56
e 3 71
e 3 90
e 3 99
e 3 103
e 3 105
e 3 113
e 3 117
e 3 119
e 3 123
e 3 128
e 3 133
e 3 139
e 3 147
e 4 5
e 4 10
e 4 34
e 4 35
e 4 36
e 4 41
e 4 50
e 4 51
e 4 55
e 4 59
e 4 63
e 4 66
e 4 75
e 4 81
e 4 86
e 4 94
e 4 98
e 4 99
e 4 100
e 4 101
e 4 104
e 4 106
e 4 111
e 4 115
e 4 118
e 4 122
e 4 125
e 4 126
e 4 129
e 4 133
e 4 146
e 5 25
e 5 28
e 5 32
e 5 34
e 5 41
e 5 47
e 5 50
e 5 59
e 5 60
e 5 66
e 5 73
e 5 78
e 5 81
e 5 85
e 5 86
e 5 96
e 5 97
e 5 101
e 5 117
e 5 124
e 5 132
e 5 140
e 5 148
e 6 9
e 6 10
e 6 11
e 6 13
e 6 20
e 6 27
e 6 31
e 6 34
e 6 39
e 6 43
e 6 44
e 6 45
e 6 49
e 6 52
e 6 71
e 6 76
e 6 78
e 6 87
e 6 88
e 6 89
e 6 95
e 6 98
e 6 109
e 6 116
e 6 117
e 6 125
e 6 128
e 6 133
e 6 134
e 6 135
e 6 146
e 6 149
e 7 10
e 7 12
e 7 16
e 7 20
e 7 23
e 7 31
e 7 37
e 7 39
e 7 44
e 7 57
e 7 64
e 7 76
e 7 81
e 7 82
e 7 88
e 7 95
e 7 97
e 7 104
e 7 106
e 7 109
e 7 115
e 7 117
e 7 124
e 7 126
e 7 130
e 7 140
e 7 147
e 7 150
e 8 15
e 8 17
e 8 20
e 8 23
e 8 33
e 8 38
e 8 40
e 8 43
e 8 51
e 8 52
e 8 53
e 8 59
e 8 67
e 8 71
e 8 75
e 8 76
e 8 82
e 8 83
e 8 86
e 8 89
e 8 91
e 8 97
e 8 98
e 8 107
e 8 115
e 8 120
e 8 123
e 8 140
e 8 145
e 9 10
e 9 11
e 9 12
e 9 26
e 9 37
e 9 40
e 9 45
e 9 48
e 9 56
e 9 65
e 9 71
e 9 72
e 9 78
e 9 80
e 9 82
e 9 90
e 9 100
e 9 102
e 9 104
e 9 106
e 9 108
e 9 128
e 9 131
e 9 133
e 9 146
e 10 11
e 10 12
e 10 15
e 10 22
e 10 33
e 10 34
e 10 36
e 10 46
e 10 49
e 10 55
e 10 61
e 10 70
e 10 75
e 10 79
e 10 84
e 10 90
e 10 93
e 10 106
e 10 107
e 10 109
e 10 115
e 10 117
e 10 128
e 10 131
e 10 137
e 10 139
e 10 140
e 10 145
e 11 13
e 11 16
e 11 20
e 11 24
e 11 31
e 11 46
e 11 53
e 11 59
e 11 60
e 11 64
e 11 66
e 11 70
e 11 72
e 11 78
e 11 80
e 11 85
e 11 88
e 11 89
e 11 94
e 11 98
e 11 101
e 11 112
e 11 139
e 11 140
e 11 148
e 12 13
e 12 14
e 12 16
e 12 22
e 12 34
e 12 38
e 12 39
e 12 46
e 12 51
e 12 52
e 12 53
e 12 57
e 12 64
e 12 71
e 12 74
e 12 78
e 12 85
e 12 90
e 12 91
e 12 92
e 12 95
e 12 99
e 12 103
e 12 109
e 12 110
e 12 116
e 12 120
e 12 121
e 12 123
e 12 133
e 12 136
e 12 139
e 12 140
e 12 143
e 12 148
e 13 15
e 13 22
e 13 32
e 13 33
e 13 45
e 13 53
e 13 57
e 13 58
e 13 66
e 13 75
e 13 85
e 13 92
e 13 93
e 13 100
e 13 121
e 13 125
e 13 126
e 13 133
e 13 134
e 13 136
e 14 23
e 14 26
e 14 27
e 14 30
e 14 31
e 14 33
e 14 35
e 14 43
e 14 45
e 14 46
e 14 56
e 14 60
e 14 62
e 14 63
e 14 64
e 14 65
e 14 70
e 14 71
e 14 72
e 14 73
e 14 79
e 14 80
e 14 84
e 14 86
e 14 97
e 14 99
e 14 102
e 14 103
e 14 105
e 14 117
e 14 124
e 14 129
e 14 135
e 14 136
e 14 139
e 14 148
e 15 17
e 15 26
e 15 29
e 15 35
e 15 37
e 15 38
e 15 39
e 15 41
e 15 51
e 15 72
e 15 78
e 15 80
e 15 88
e 15 91
e 15 107
e 15 111
e 15 114
e 15 126
e 15 131
e 15 145
e 15 148
e 16 20
e 16 28
e 16 52
e 16 63
e 16 73
e 16 74
e 16 75
e 16 77
e 16 81
e 16 84
e 16 87
e 16 88
e 16 90
e 16 95
e 16 100
e 16 101
e 16 104
e 16 108
e 16 110
e 16 112
e 16 124
e 16 125
e 16 128
e 16 131
e 16 134
e 16 135
e 16 144
e 16 148
e 17 27
e 17 39
e 17 40
e 17 43
e 17 45
e 17 61
e 17 62
e 17 65
e 17 70
e 17 72
e 17 76
e 17 80
e 17 88
e 17 100
e 17 102
e 17 107
e 17 120
e 17 123
e 17 125
e 17 132
e 17 143
e 18 23
e 18 25
e 18 27
e 18 30
e 18 32
e 18 59
e 18 66
e 18 71
e 18 72
e 18 73
e 18 77
e 18 85
e 18 89
e 18 99
e 18 101
e 18 117
e 18 119
e 18 126
e 18 134
e 18 141
e 18 145
e 18 148
e 19 27
e 19 29
e 19 33
e 19 36
e 19 45
e 19 47
e 19 48
e 19 52
e 19 53
e 19 54
e 19 55
e 19 56
e 19 63
e 19 66
e 19 69
e 19 74
e 19 76
e 19 85
e 19 86
e 19 90
e 19 91
e 19 94
e 19 97
e 19 98
e 19 100
e 19 102
e 19 112
e 19 131
e 19 134
e 19 139
e 19 145
e 19 146
e 19 147
e 19 149
e 19 150
e 20 30
e 20 39
e 20 46
e 20 50
e 20 63
e 20 67
e 20 75
e 20 76
e 20 80
e 20 81
e 20 82
e 20 91
e 20 95
e 20 98
e 20 99
e 20 103
e 20 109
e 20 113
e 20 126
e 20 131
e 20 133
e 20 136
e 20 137
e 20 142
e 20 146
e 20 147
e 21 23
e 21 29
e 21 32
e 21 33
e 21 42
e 21 47
e 21 64
e 21 68
e 21 69
e 21 70
e 21 82
e 21 86
e 21 89
e 21 101
e 21 102
e 21 104
e 21 107
e 21 124
e 21 125
e 21 135
e 21 143
e 22 26
e 22 29
e 22 42
e 22 47
e 22 55
e 22 62
e 22 69
e 22 71
e 22 78
e 22 83
e 22 94
e 22 96
e 22 105
e 22 107
e 22 109
e 22 111
e 22 114
e 22 116
e 22 119
e 22 126
e 22 147
e 23 24
e 23 25
e 23 32
e 23 34
e 23 43
e 23 44
e 23 46
e 23 47
e 23 54
e 23 57
e 23 64
e 23 71
e 23 77
e 23 78
e 23 80
e 23 81
e 23 83
e 23 86
e 23 90
e 23 92
e 23 105
e 23 106
e 23 107
e 23 111
e 23 116
e 23 119
e 23 121
e 23 131
e 23 132
e 23 143
e 23 146
e 24 25
e 24 28
e 24 32
e 24 35
e 24 39
e 24 43
e 24 45
e 24 48
e 24 51
e 24 56
e 24 57
e 24 58
e 24 61
e 24 68
e 24 71
e 24 77
e 24 81
e 24 91
e 24 100
e 24 103
e 24 105
e 24 110
e 24 113
e 24 115
e 24 125
e 24 134
e 24 136
e 24 139
e 24 148
e 24 149
e 25 26
e 25 29
e 25 32
e 25 45
e 25 46
e 25 48
e 25 55
e 25 61
e 25 64
e 25 65
e 25 78
e 25 81
e 25 86
e 25 92
e 25 103
e 25 104
e 25 117
e 25 120
e 25 122
e 25 125
e 25 130
e 25 132
e 25 147
e 25 148
e 26 27
e 26 35
e 26 42
e 26 45
e 26 46
e 26 47
e 26 60
e 26 64
e 26 65
e 26 77
e 26 79
e 26 85
e 26 87
e 26 92
e 26 102
e 26 107
e 26 114
e 26 115
e 26 117
e 26 129
e 26 132
e 26 134
e 26 138
e 26 141
e 27 30
e 27 31
e 27 35
e 27 38
e 27 42
e 27 43
e 27 46
e 27 50
e 27 56
e 27 64
e 27 71
e 27 76
e 27 81
e 27 90
e 27 92
e 27 96
e 27 103
e 27 107
e 27 124
e 27 127
e 27 131
e 27 134
e 27 135
e 27 139
e 28 33
e 28 35
e 28 37
e 28 38
e 28 42
e 28 43
e 28 46
e 28 56
e 28 57
e 28 60
e 28 66
e 28 76
e 28 78
e 28 83
e 28 84
e 28 98
e 28 101
e 28 102
e 28 112
e 28 113
e 28 115
e 28 118
e 28 119
e 28 133
e 28 134
e 28 147
e 28 148
e 29 33
e 29 37
e 29 40
e 29 46
e 29 50
e 29 56
e 29 61
e 29 67
e 29 70
e 29 71
e 29 74
e 29 88
e 29 94
e 29 96
e 29 112
e 29 131
e 29 138
e 29 150
e 30 40
e 30 42
e 30 47
e 30 57
e 30 64
e 30 69
e 30 72
e 30 74
e 30 77
e 30 80
e 30 88
e 30 94
e 30 97
e 30 104
e 30 109
e 30 112
e 30 117
e 30 121
e 30 124
e 30 130
e 30 132
e 30 137
e 30 141
e 30 149
e 31 34
e 31 41
e 31 45
e 31 51
e 31 74
e 31 85
e 31 89
e 31 91
e 31 98
e 31 104
e 31 105
e 31 114
e 31 116
e 31 117
e 31 120
e 31 122
e 31 126
e 31 131
e 31 138
e 31 144
e 32 35
e 32 41
e 32 49
e 32 52
e 32 53
e 32 57
e 32 60
e 32 65
e 32 74
e 32 76
e 32 79
e 32 81
e 32 88
e 32 93
e 32 94
e 32 96
e 32 101
e 32 109
e 32 110
e 32 118
e 32 119
e 32 131
e 32 137
e 32 148
e 32 150
e 33 37
e 33 38
e 33 40
e 33 42
e 33 44
e 33 47
e 33 58
e 33 62
e 33 70
e 33 78
e 33 79
e 33 87
e 33 93
e 33 97
e 33 99
e 33 107
e 33 108
e 33 127
e 33 132
e 33 137
e 33 138
e 34 36
e 34 42
e 34 43
e 34 50
e 34 60
e 34 67
e 34 69
e 34 76
e 34 77
e 34 78
e 34 94
e 34 99
e 34 101
e 34 110
e 34 126
e 34 128
e 34 130
e 34 135
e 34 143
e 35 42
e 35 46
e 35 48
e 35 61
e 35 64
e 35 68
e 35 70
e 35 71
e 35 72
e 35 79
e 35 82
e 35 87
e 35 95
e 35 106
e 35 107
e 35 111
e 35 112
e 35 115
e 35 118
e 35 125
e 35 126
e 35 127
e 35 134
e 35 144
e 35 145
e 35 150
e 36 38
e 36 39
e 36 40
e 36 43
e 36 44
e 36 49
e 36 53
e 36 57
e 36 61
e 36 70
e 36 73
e 36 83
e 36 84
e 36 97
e 36 100
e 36 112
e 36 114
e 36 116
e 36 130
e 36 131
e 36 132
e 36 137
e 36 142
e 36 144
e 36 146
e 37 39
e 37 43
e 37 49
e 37 56
e 37 68
e 37 73
e 37 85
e 37 98
e 37 115
e 37 117
e 37 121
e 37 133
e 37 135
e 37 143
e 37 145
e 37 148
e 38 43
e 38 44
e 38 46
e 38 49
e 38 58
e 38 60
e 38 68
e 38 71
e 38 72
e 38 81
e 38 87
e 38 90
e 38 104
e 38 107
e 38 108
e 38 112
e 38 116
e 38 120
e 38 125
e 38 129
e 38 131
e 38 134
e 38 136
e 38 137
e 38 138
e 38 139
e 38 143
e 39 47
e 39 48
e 39 56
e 39 57
e 39 68
e 39 69
e 39 72
e 39 106
e 39 112
e 39 114
e 39 116
e 39 121
e 39 123
e 39 127
e 39 128
e 39 136
e 39 145
e 39 146
e 40 41
e 40 47
e 40 60
e 40 62
e 40 66
e 40 69
e 40 74
e 40 76
e 40 79
e 40 82
e 40 83
e 40 89
e 40 94
e 40 95
e 40 100
e 40 101
e 40 107
e 40 109
e 40 126
e 40 129
e 40 132
e 40 134
e 40 136
e 40 140
e 40 146
e 41 42
e 41 47
e 41 53
e 41 70
e 41 73
e 41 74
e 41 75
e 41 76
e 41 81
e 41 84
e 41 90
e 41 96
e 41 101
e 41 107
e 41 115
e 41 119
e 41 125
e 41 127
e 41 128
e 41 139
e 41 147
e 42 46
e 42 47
e 42 51
e 42 52
e 42 53
e 42 56
e 42 63
e 42 64
e 42 66
e 42 94
e 42 98
e 42 104
e 42 112
e 42 116
e 42 117
e 42 120
e 42 121
e 42 123
e 42 124
e 42 137
e 42 143
e 42 144
e 42 146
e 43 66
e 43 69
e 43 70
e 43 77
e 43 78
e 43 84
e 43 90
e 43 95
e 43 98
e 43 99
e 43 100
e 43 112
e 43 117
e 43 118
e 43 129
e 43 131
e 43 133
e 43 140
e 43 148
e 44 46
e 44 48
e 44 63
e 44 75
e 44 77
e 44 80
e 44 83
e 44 88
e 44 90
e 44 98
e 44 108
e 44 112
e 44 120
e 44 121
e 44 127
e 44 140
e 44 143
e 44 146
e 44 150
e 45 53
e 45 61
e 45 72
e 45 74
e 45 80
e 45 83
e 45 87
e 45 94
e 45 110
e 45 116
e 45 118
e 45 124
e 45 135
e 45 150
e 46 49
e 46 50
e 46 68
e 46 77
e 46 78
e 46 79
e 46 84
e 46 85
e 46 89
e 46 103
e 46 105
e 46 106
e 46 123
e 46 131
e 46 138
e 47 51
e 47 58
e 47 60
e 47 92
e 47 97
e 47 103
e 47 106
e 47 119
e 47 123
e 47 126
e 47 129
e 47 134
e 47 142
e 47 146
e 47 148
e 48 54
e 48 56
e 48 59
e 48 66
e 48 68
e 48 74
e 48 75
e 48 93
e 48 100
e 48 102
e 48 107
e 48 119
e 48 123
e 48 125
e 48 128
e 48 136
e 48 137
e 48 142
e 49 50
e 49 56
e 49 59
e 49 73
e 49 78
e 49 80
e 49 85
e 49 86
e 49 88
e 49 90
e 49 97
e 49 98
e 49 103
e 49 109
e 49 110
e 49 114
e 49 117
e 49 118
e 49 119
e 49 121
e 49 122
e 49 132
e 49 134
e 49 136
e 49 147
e 50 53
e 50 64
e 50 71
e 50 88
e 50 94
e 50 96
e 50 99
e 50 108
e 50 113
e 50 126
e 50 129
e 50 131
e 50 133
e 50 134
e 50 138
e 50 145
e 50 149
e 51 57
e 51 65
e 51 66
e 51 72
e 51 75
e 51 78
e 51 82
e 51 87
e 51 95
e 51 103
e 51 105
e 51 120
e 51 123
e 51 125
e 51 127
e 51 133
e 51 136
e 51 137
e 51 139
e 51 145
e 51 150
e 52 54
e 52 56
e 52 63
e 52 69
e 52 72
e 52 73
e 52 84
e 52 85
e 52 88
e 52 90
e 52 91
e 52 93
e 52 100
e 52 110
e 52 112
e 52 115
e 52 119
e 52 130
e 52 143
e 52 146
e 53 59
e 53 61
e 53 64
e 53 67
e 53 69
e 53 75
e 53 77
e 53 88
e 53 89
e 53 97
e 53 101
e 53 106
e 53 112
e 53 113
e 53 114
e 53 115
e 53 116
e 53 128
e 53 129
e 53 130
e 53 132
e 53 133
e 53 134
e 53 148
e 53 149
e 54 57
e 54 64
e 54 65
e 54 73
e 54 74
e 54 76
e 54 77
e 54 78
e 54 79
e 54 81
e 54 82
e 54 83
e 54 90
e 54 111
e 54 114
e 54 116
e 54 124
e 54 127
e 54 128
e 54 132
e 54 138
e 54 141
e 54 143
e 54 148
e 55 57
e 55 60
e 55 76
e 55 81
e 55 93
e 55 98
e 55 101
e 55 104
e 55 113
e 55 115
e 55 117
e 55 123
e 55 129
e 55 134
e 55 138
e 55 139
e 55 143
e 55 144
e 55 149
e 56 59
e 56 61
e 56 70
e 56 72
e 56 73
e 56 74
e 56 81
e 56 82
e 56 83
e 56 86
e 56 92
e 56 95
e 56 96
e 56 114
e 56 115
e 56 118
e 56 120
e 56 124
e 56 128
e 56 138
e 56 144
e 57 61
e 57 62
e 57 64
e 57 70
e 57 79
e 57 81
e 57 82
e 57 90
e 57 97
e 57 101
e 57 107
e 57 111
e 57 115
e 57 131
e 57 146
e 57 147
e 57 149
e 57 150
e 58 61
e 58 66
e 58 73
e 58 76
e 58 78
e 58 82
e 58 90
e 58 121
e 58 125
e 58 126
e 58 127
e 58 131
e 58 136
e 58 138
e 58 142
e 58 144
e 58 145
e 59 60
e 59 66
e 59 74
e 59 78
e 59 79
e 59 80
e 59 82
e 59 83
e 59 85
e 59 88
e 59 89
e 59 90
e 59 94
e 59 95
e 59 97
e 59 103
e 59 108
e 59 115
e 59 122
e 59 124
e 59 128
e 59 134
e 59 145
e 59 148
e 60 62
e 60 64
e 60 67
e 60 68
e 60 75
e 60 77
e 60 78
e 60 82
e 60 87
e 60 94
e 60 111
e 60 112
e 60 118
e 60 132
e 60 136
e 60 139
e 60 146
e 61 62
e 61 86
e 61 91
e 61 110
e 61 117
e 61 125
e 61 132
e 61 135
e 61 139
e 61 148
e 61 150
e 62 63
e 62 67
e 62 71
e 62 72
e 62 74
e 62 75
e 62 83
e 62 91
e 62 94
e 62 95
e 62 97
e 62 101
e 62 103
e 62 108
e 62 113
e 62 118
e 62 121
e 62 125
e 62 127
e 62 128
e 62 130
e 62 141
e 63 69
e 63 75
e 63 79
e 63 81
e 63 88
e 63 94
e 63 110
e 63 123
e 63 125
e 63 129
e 63 144
e 63 145
e 63 146
e 64 69
e 64 71
e 64 72
e 64 74
e 64 77
e 64 82
e 64 89
e 64 91
e 64 93
e 64 94
e 64 96
e 64 98
e 64 99
e 64 110
e 64 113
e 64 125
e 64 131
e 64 138
e 64 145
e 64 147
e 65 68
e 65 72
e 65 76
e 65 77
e 65 80
e 65 84
e 65 87
e 65 89
e 65 93
e 65 95
e 65 104
e 65 108
e 65 110
e 65 113
e 65 115
e 65 119
e 65 124
e 65 131
e 65 134
e 65 135
e 66 67
e 66 69
e 66 71
e 66 73
e 66 75
e 66 80
e 66 81
e 66 87
e 66 91
e 66 92
e 66 94
e 66 98
e 66 110
e 66 126
e 66 139
e 66 140
e 66 143
e 66 147
e 67 73
e 67 77
e 67 81
e 67 99
e 67 109
e 67 112
e 67 117
e 67 128
e 67 143
e 67 146
e 67 150
e 68 69
e 68 72
e 68 74
e 68 81
e 68 90
e 68 92
e 68 106
e 68 109
e 68 118
e 68 123
e 68 136
e 68 142
e 68 147
e 68 149
e 69 73
e 69 75
e 69 79
e 69 82
e 69 86
e 69 101
e 69 107
e 69 108
e 69 115
e 69 117
e 69 121
e 69 128
e 69 136
e 69 137
e 69 138
e 69 141
e 69 145
e 69 146
e 70 77
e 70 78
e 70 79
e 70 82
e 70 84
e 70 85
e 70 87
e 70 100
e 70 105
e 70 106
e 70 109
e 70 112
e 70 113
e 70 121
e 70 130
e 70 139
e 71 77
e 71 78
e 71 79
e 71 82
e 71 85
e 71 94
e 71 103
e 71 107
e 71 110
e 71 118
e 71 120
e 71 128
e 71 129
e 71 135
e 71 137
e 71 147
e 71 150
e 72 74
e 72 87
e 72 100
e 72 104
e 72 113
e 72 116
e 72 117
e 72 126
e 72 127
e 72 134
e 72 140
e 72 142
e 72 145
e 72 150
e 73 74
e 73 79
e 73 87
e 73 89
e 73 95
e 73 102
e 73 104
e 73 108
e 73 114
e 73 116
e 73 117
e 73 122
e 73 123
e 73 125
e 73 127
e 73 129
e 73 132
e 73 133
e 73 134
e 73 138
e 73 140
e 73 143
e 74 80
e 74 82
e 74 113
e 74 116
e 74 117
e 74 125
e 74 126
e 74 133
e 74 135
e 74 136
e 74 147
e 74 150
e 75 85
e 75 89
e 75 90
e 75 93
e 75 115
e 75 117
e 75 121
e 75 122
e 75 133
e 75 134
e 75 135
e 75 141
e 75 146
e 75 147
e 75 149
e 76 77
e 76 78
e 76 83
e 76 85
e 76 90
e 76 92
e 76 96
e 76 101
e 76 110
e 76 111
e 76 114
e 76 120
e 76 133
e 76 138
e 76 139
e 76 143
e 76 144
e 77 80
e 77 82
e 77 84
e 77 86
e 77 101
e 77 108
e 77 109
e 77 118
e 77 127
e 77 129
e 77 136
e 77 137
e 77 139
e 77 145
e 77 150
e 78 79
e 78 84
e 78 88
e 78 89
e 78 98
e 78 103
e 78 105
e 78 106
e 78 108
e 78 119
e 78 122
e 78 135
e 78 136
e 78 142
e 78 150
e 79 80
e 79 81
e 79 82
e 79 83
e 79 86
e 79 96
e 79 130
e 79 132
e 79 133
e 79 137
e 79 150
e 80 82
e 80 92
e 80 97
e 80 98
e 80 100
e 80 118
e 80 122
e 80 123
e 80 125
e 80 127
e 80 133
e 80 134
e 80 139
e 80 142
e 80 144
e 80 149
e 81 82
e 81 83
e 81 84
e 81 94
e 81 96
e 81 100
e 81 113
e 81 118
e 81 125
e 81 128
e 81 138
e 81 141
e 81 144
e 81 148
e 82 87
e 82 90
e 82 92
e 82 94
e 82 96
e 82 100
e 82 107
e 82 118
e 82 121
e 82 122
e 82 124
e 82 133
e 82 138
e 82 150
e 83 88
e 83 90
e 83 92
e 83 93
e 83 96
e 83 102
e 83 103
e 83 106
e 83 107
e 83 110
e 83 113
e 83 114
e 83 120
e 83 121
e 83 124
e 83 126
e 83 148
e 84 87
e 84 88
e 84 95
e 84 102
e 84 103
e 84 109
e 84 112
e 84 114
e 84 116
e 84 117
e 84 122
e 84 125
e 84 132
e 84 135
e 84 139
e 84 148
e 84 149
e 85 97
e 85 100
e 85 102
e 85 105
e 85 111
e 85 118
e 85 123
e 85 125
e 85 130
e 85 132
e 85 136
e 85 142
e 85 149
e 86 91
e 86 92
e 86 93
e 86 97
e 86 105
e 86 113
e 86 119
e 86 120
e 86 125
e 86 127
e 86 130
e 86 138
e 86 146
e 86 149
e 86 150
e 87 96
e 87 99
e 87 101
e 87 107
e 87 108
e 87 109
e 87 112
e 87 114
e 87 120
e 87 121
e 87 139
e 87 142
e 87 144
e 87 146
e 88 91
e 88 95
e 88 103
e 88 104
e 88 118
e 88 120
e 88 123
e 88 138
e 88 140
e 88 149
e 89 93
e 89 97
e 89 101
e 89 104
e 89 107
e 89 110
e 89 111
e 89 116
e 89 117
e 89 121
e 89 126
e 89 143
e 89 147
e 90 95
e 90 97
e 90 98
e 90 99
e 90 101
e 90 107
e 90 112
e 90 116
e 90 118
e 90 122
e 90 123
e 90 124
e 90 127
e 90 131
e 90 144
e 90 149
e 91 92
e 91 99
e 91 101
e 91 110
e 91 114
e 91 119
e 91 121
e 91 122
e 91 126
e 91 127
e 91 135
e 91 139
e 91 143
e 91 144
e 92 103
e 92 106
e 92 108
e 92 111
e 92 112
e 92 118
e 92 122
e 92 123
e 93 96
e 93 107
e 93 111
e 93 112
e 93 120
e 93 121
e 93 128
e 93 136
e 93 142
e 93 143
e 93 145
e 93 149
e 94 98
e 94 101
e 94 103
e 94 105
e 94 110
e 94 111
e 94 120
e 94 127
e 94 131
e 94 147
e 94 150
e 95 108
e 95 109
e 95 114
e 95 118
e 95 120
e 95 126
e 95 128
e 95 136
e 95 138
e 95 139
e 95 140
e 95 143
e 95 144
e 95 146
e 96 98
e 96 102
e 96 121
e 96 122
e 96 124
e 96 127
e 96 140
e 96 144
e 97 109
e 97 111
e 97 114
e 97 118
e 97 123
e 97 125
e 97 133
e 97 134
e 97 147
e 97 148
e 97 149
e 98 102
e 98 104
e 98 112
e 98 121
e 98 124
e 98 129
e 98 132
e 98 133
e 98 137
e 98 138
e 98 141
e 98 142
e 98 143
e 98 149
e 98 150
e 99 105
e 99 113
e 99 114
e 99 122
e 99 124
e 99 127
e 99 130
e 99 131
e 99 134
e 99 135
e 99 138
e 99 144
e 99 149
e 99 150
e 100 114
e 100 121
e 100 125
e 100 126
e 100 127
e 100 129
e 100 147
e 100 150
e 101 103
e 101 115
e 101 118
e 101 120
e 101 123
e 101 144
e 101 146
e 101 147
e 102 106
e 102 110
e 102 113
e 102 116
e 102 118
e 102 126
e 102 129
e 102 131
e 102 134
e 102 140
e 102 150
e 103 104
e 103 106
e 103 110
e 103 114
e 103 128
e 103 131
e 103 133
e 103 138
e 103 140
e 103 143
e 104 111
e 104 114
e 104 120
e 104 121
e 104 128
e 104 130
e 104 138
e 104 144
e 104 148
e 105 106
e 105 110
e 105 118
e 105 123
e 105 125
e 105 126
e 105 127
e 105 135
e 105 136
e 105 149
e 105 150
e 106 110
e 106 121
e 106 123
e 106 126
e 106 128
e 106 129
e 106 131
e 106 137
e 106 140
e 106 142
e 106 146
e 106 147
e 107 113
e 107 121
e 107 124
e 107 132
e 107 133
e 107 139
e 107 141
e 107 149
e 107 150
e 108 113
e 108 114
e 108 129
e 108 135
e 108 137
e 108 139
e 108 141
e 108 145
e 108 149
e 109 118
e 109 124
e 109 128
e 109 131
e 109 133
e 109 134
e 109 144
e 110 111
e 110 122
e 110 123
e 110 131
e 110 133
e 110 135
e 110 136
e 110 141
e 111 118
e 111 125
e 111 128
e 111 129
e 111 134
e 111 147
e 112 114
e 112 119
e 112 125
e 112 126
e 112 128
e 112 130
e 112 131
e 112 136
e 112 147
e 113 122
e 113 134
e 113 137
e 113 139
e 113 145
e 114 115
e 114 122
e 114 123
e 114 125
e 114 126
e 114 127
e 114 131
e 114 144
e 114 149
e 115 116
e 115 125
e 115 132
e 115 140
e 115 143
e 115 146
e 116 119
e 116 127
e 116 129
e 116 131
e 116 133
e 116 140
e 116 141
e 116 144
e 116 145
e 117 123
e 117 140
e 117 143
e 118 134
e 118 145
e 119 125
e 119 128
e 119 133
e 120 127
e 120 134
e 120 137
e 120 146
e 121 122
e 121 126
e 121 129
e 121 137
e 121 141
e 121 147
e 121 148
e 121 149
e 122 128
e 122 129
e 122 132
e 122 133
e 122 138
e 122 147
e 123 135
e 123 141
e 123 142
e 124 127
e 124 147
e 124 149
e 124 150
e 125 132
e 125 136
e 125 137
e 125 140
e 125 142
e 125 150
e 126 130
e 126 137
e 126 141
e 126 144
e 127 130
e 127 131
e 127 133
e 127 144
e 127 149
e 128 133
e 128 134
e 128 135
e 128 141
e 129 134
e 129 143
e 129 148
e 130 137
e 130 138
e 130 148
e 131 138
e 131 141
e 131 147
e 131 149
e 132 138
e 132 142
e 133 134
e 133 135
e 133 137
e 133 141
e 133 144
e 133 149
e 134 141
e 134 147
e 134 149
e 134 150
e 135 137
e 135 141
e 136 145
e 136 146
e 136 148
e 137 138
e 138 144
e 139 147
e 140 149
e 140 150
e 141 148
e 141 150
e 142 146
e 142 148
e 143 144
e 143 147
e 147 148
